50 25
   1   -1   -1   16   16   -1    2   -1    2   -1   -1   -1   12    1   19    9   -1    1   -1   22   15    9   -1   18    2   -1   -1    8    2    0   -1   -1   22    6   19   -1   12    7   -1   16   -1   21   -1   14    4   14   11    7   -1   -1 
   0    1   -1    0   -1   21   13   12   -1   -1   21    2   -1   -1   -1   -1   -1   12   18   -1   -1   15   11   17    1   -1   -1   13   18    3   -1   -1   -1   13   -1   12   -1   -1   -1   -1    8   -1    1   16   -1   -1   -1   -1   16   -1 
   0    0    1    6    3    5   -1    7   -1   -1    0    4   -1   -1   -1   16   14   -1   -1   11   20   -1   21   -1   -1   -1   15   -1    5   -1    2   -1    3   -1   -1   -1   -1   23   20   -1    6   20   -1   -1    5   -1   -1   -1   -1   -1 
   0    0    0    1   16   -1   -1    2   19   11    4   -1   -1   -1   20   20   -1    4    0   -1    6    9   -1   -1    2   -1   -1    1   -1   -1   -1    1   -1   -1   -1   -1   14    2   -1   -1   -1   -1   22    8    0    9   -1   -1    8   16 
   0    0    0    0    1   -1   16   -1    6   -1   14   -1   -1   -1   -1   10   -1   20   20   -1   19   -1   19   21   19    9   13   23   -1   -1   -1    4   24   -1   -1   16   -1   20   10    5   -1   -1   19    4   -1   -1    5   -1   -1   17 
   0    0    0    0    0    1   -1   -1   -1   -1   -1   -1   -1   -1   18   -1   -1   -1    0   -1   -1   -1   -1   -1   -1   -1   -1    5   -1    3   21   11    7   -1   -1   -1   14   18    8   -1   -1   20   -1   -1   -1   -1   -1   -1    3   -1 
   0    0    0    0    0    0    1   22   15    5   17   -1   15    8   -1   14   -1   -1   -1   -1   -1   -1   -1   -1   -1    9   -1   -1    9   -1    3    1   -1   20   -1   21   21   -1    2   20   24   -1   19   -1   -1   22   11   -1   13   -1 
   0    0    0    0    0    0    0    1   -1   -1   -1   18   -1   -1   -1   -1   -1   20   -1   21   23   -1   -1   -1    8   13   -1    8   -1   -1   22    4    0    2   -1   -1   -1    7   15   -1   10   18   -1   12   11    2   -1   18   -1   10 
   0    0    0    0    0    0    0    0    1   -1    7   13   12   -1    6    5   14   -1   -1   -1   21    0   -1   -1   -1   -1    1    2   11   11   14    8    1   -1   -1   -1    8   11   -1   20    0   -1   -1   -1   17   10   -1   21   10   -1 
   0    0    0    0    0    0    0    0    0    1   -1   -1   -1   -1   10    5   -1   -1   -1   21   -1   -1   -1   14   11   -1   -1   12   -1   23   -1   -1   -1    1   10   23   -1    8   -1    6   -1   13   -1    3   -1   -1   -1   -1   -1   -1 
   0    0    0    0    0    0    0    0    0    0    0   16   23   13   24   -1   -1    8   20    6   -1   -1   -1   23   -1   -1   18    7   -1   -1    1    6   -1   -1    5   -1    6   -1    1   12   -1   -1   -1    2   18   12   -1   -1   -1   -1 
   0    0    0    0    0    0    0    0    0    0    0    0   17   19   -1   23   -1   17   24    7   -1   15    4    2    3   16   -1   -1   -1   -1   -1    9   -1   -1   -1   10   -1   -1    8    5    9    2   -1    6   17   -1   -1   -1   -1   -1 
   0    0    0    0    0    0    0    0    0    0    0    0    0   17   -1    0   -1   13   -1    4    0   -1   -1   -1   13   -1   -1   17   19   10   -1   -1   -1   -1    1   11    1    6   -1   -1   -1   -1   -1   -1   -1   -1    0   16   20   -1 
   0    0    0    0    0    0    0    0    0    0    0    0    0    0    9    5   24   24   19   -1    3   16   -1   -1   23    4   -1   14   -1   -1    5   -1    1   -1   -1   22   -1   -1   -1    1   -1   22   18    5   -1    9    7    4    7   11 
   0    0    0    0    0    0    0    0    0    0    0    0    0    0    0   -1   -1   14   -1   24   11   -1    4   22   -1   24   17   15   -1   -1   -1   -1   11   -1   19   -1   24   -1    3   -1   16    5   -1   -1   -1   17   -1   -1   -1   -1 
   0    0    0    0    0    0    0    0    0    0    0    0    0    0    0    0   -1   -1   -1    2   -1   22   -1   18    4   -1   -1   24   12   11   -1   -1   21   -1   -1   15   -1   -1   -1   -1   15   -1   -1   -1   -1   22   -1   17   24   11 
   0    0    0    0    0    0    0    0    0    0    0    0    0    0    0    0    0   20   -1   17   -1   12   -1   -1    7    4   -1   -1    9   -1   -1   -1   14    0   10   -1   -1   24    7   -1   -1   -1   -1   -1   -1   12   13   -1    1   -1 
   0    0    0    0    0    0    0    0    0    0    0    0    0    0    0    0    0    0   -1   11   -1    7   -1    9   -1   -1   19   14   -1   -1   -1   -1    9   -1   -1   -1   -1    6   21   15   -1    6    8    7   17   -1   -1   -1   23    9 
   0    0    0    0    0    0    0    0    0    0    0    0    0    0    0    0    0    0    0   18   -1   -1   20   19   -1   22   -1    0   23    0   -1   19   18   -1   -1    8   -1    3   -1   -1    2   -1   10   14   -1   -1   -1   -1   11    0 
   0    0    0    0    0    0    0    0    0    0    0    0    0    0    0    0    0    0    0    0   12   -1    8   20   20   10   -1   -1   19   -1   -1    2   15   -1   -1   -1    8   -1   15    5   -1   -1    4    0   -1   -1   -1   -1   22   24 
   0    0    0    0    0    0    0    0    0    0    0    0    0    0    0    0    0    0    0    0    0   12    4   -1   21   -1   18   -1    8   -1   -1    6   -1    3    2   21   21   -1    0   -1   17   22   -1   21   -1   -1    3   17    3   -1 
   0    0    0    0    0    0    0    0    0    0    0    0    0    0    0    0    0    0    0    0    0    0   -1   -1   -1   -1   -1    5    1   22   23   -1   21    1   -1   -1    6   21   17   -1   10   -1   -1   -1   -1   -1   -1   -1   -1   -1 
   0    0    0    0    0    0    0    0    0    0    0    0    0    0    0    0    0    0    0    0    0    0    0   11   15   16   -1   -1   -1   -1   -1   -1    6   18   17    2   -1   20   13   -1   16   22   -1   24   -1   10   23    9   16   -1 
   0    0    0    0    0    0    0    0    0    0    0    0    0    0    0    0    0    0    0    0    0    0    0    0   22    9   -1   12   16    0   -1   -1    2    4   17   -1   -1   -1    4   -1   -1   -1   22   -1    9   18   -1    9   21    9 
   0    0    0    0    0    0    0    0    0    0    0    0    0    0    0    0    0    0    0    0    0    0    0    0    0    7   21   13   -1    8   13   11   24   -1   -1    6   -1    7   19   -1    3    0   15   -1    7   20   -1   -1   22   -1 
   0    0    0    0    0    0    0    0    0    0    0    0    0    0    0    0    0    0    0    0    0    0    0    0    0    0   21   18   -1   -1   -1   -1   12    7   -1    6   -1    8   -1    8   -1   -1   -1   -1   -1    7   17   21   -1    3 
   0    0    0    0    0    0    0    0    0    0    0    0    0    0    0    0    0    0    0    0    0    0    0    0    0    0    0   -1   -1   23   -1    8   11   11   16   -1   11   -1   -1   -1   23   19   -1    7   -1   -1   13    6   12   21 
   0    0    0    0    0    0    0    0    0    0    0    0    0    0    0    0    0    0    0    0    0    0    0    0    0    0    0    0   14    9   -1   15   -1   -1   -1   12   -1   12   14   11    0   22   -1    1   -1   -1   18   13   16   -1 
   0    0    0    0    0    0    0    0    0    0    0    0    0    0    0    0    0    0    0    0    0    0    0    0    0    0    0    0    0   -1   -1   -1   -1   -1   19   -1   17   -1   14    1   -1   -1   10   19   10    8   -1   -1    4   -1 
   0    0    0    0    0    0    0    0    0    0    0    0    0    0    0    0    0    0    0    0    0    0    0    0    0    0    0    0    0    0   -1    2   23    9   11   -1   -1    5    0   -1   18    1   -1   -1   22   -1   -1   14   22    6 
   0    0    0    0    0    0    0    0    0    0    0    0    0    0    0    0    0    0    0    0    0    0    0    0    0    0    0    0    0    0    0    5   15   -1   -1   -1   14   -1   -1   10   13    1   -1   -1    6   -1   11   -1   11   -1 
   0    0    0    0    0    0    0    0    0    0    0    0    0    0    0    0    0    0    0    0    0    0    0    0    0    0    0    0    0    0    0    0   10    3   -1   -1    5    6   -1   -1   -1   -1   18    4   -1   -1   -1   13    7   -1 
   0    0    0    0    0    0    0    0    0    0    0    0    0    0    0    0    0    0    0    0    0    0    0    0    0    0    0    0    0    0    0    0    0   -1   -1   -1   -1    6    0   -1   -1    2   23   -1    7   -1   -1   -1   14   -1 
   0    0    0    0    0    0    0    0    0    0    0    0    0    0    0    0    0    0    0    0    0    0    0    0    0    0    0    0    0    0    0    0    0    0    0   15   -1   -1   -1   -1   20   -1   -1    6   -1   14   -1   19    4    6 
   0    0    0    0    0    0    0    0    0    0    0    0    0    0    0    0    0    0    0    0    0    0    0    0    0    0    0    0    0    0    0    0    0    0    0    1    5   -1    4   22    0   -1   -1   -1   -1    2   -1   11   -1   -1 
   0    0    0    0    0    0    0    0    0    0    0    0    0    0    0    0    0    0    0    0    0    0    0    0    0    0    0    0    0    0    0    0    0    0    0    0   -1    2   -1   -1   -1   -1    9   19   19    2   -1    5   -1   -1 
   0    0    0    0    0    0    0    0    0    0    0    0    0    0    0    0    0    0    0    0    0    0    0    0    0    0    0    0    0    0    0    0    0    0    0    0    0   -1   23   14   -1   24    9    1    7   -1   -1   -1   -1   -1 
   0    0    0    0    0    0    0    0    0    0    0    0    0    0    0    0    0    0    0    0    0    0    0    0    0    0    0    0    0    0    0    0    0    0    0    0    0    0   -1   -1   -1   -1   20   19   13   12   13   -1   -1   -1 
   0    0    0    0    0    0    0    0    0    0    0    0    0    0    0    0    0    0    0    0    0    0    0    0    0    0    0    0    0    0    0    0    0    0    0    0    0    0    0   -1    2   16   -1    4    0   -1   24   -1   24    7 
   0    0    0    0    0    0    0    0    0    0    0    0    0    0    0    0    0    0    0    0    0    0    0    0    0    0    0    0    0    0    0    0    0    0    0    0    0    0    0    0    4   -1   13   20   -1   -1    6    4    2   -1 
   0    0    0    0    0    0    0    0    0    0    0    0    0    0    0    0    0    0    0    0    0    0    0    0    0    0    0    0    0    0    0    0    0    0    0    0    0    0    0    0    0   10    4   19    0   -1   -1   -1   -1   11 
   0    0    0    0    0    0    0    0    0    0    0    0    0    0    0    0    0    0    0    0    0    0    0    0    0    0    0    0    0    0    0    0    0    0    0    0    0    0    0    0    0    0   -1   -1   -1   11   -1    8   22    8 
   0    0    0    0    0    0    0    0    0    0    0    0    0    0    0    0    0    0    0    0    0    0    0    0    0    0    0    0    0    0    0    0    0    0    0    0    0    0    0    0    0    0    0   -1   -1   24    3   -1   20   18 
   0    0    0    0    0    0    0    0    0    0    0    0    0    0    0    0    0    0    0    0    0    0    0    0    0    0    0    0    0    0    0    0    0    0    0    0    0    0    0    0    0    0    0    0   -1   -1    8   -1   -1    9 
   0    0    0    0    0    0    0    0    0    0    0    0    0    0    0    0    0    0    0    0    0    0    0    0    0    0    0    0    0    0    0    0    0    0    0    0    0    0    0    0    0    0    0    0    0   -1   14   -1   12   -1 
   0    0    0    0    0    0    0    0    0    0    0    0    0    0    0    0    0    0    0    0    0    0    0    0    0    0    0    0    0    0    0    0    0    0    0    0    0    0    0    0    0    0    0    0    0    0   19   14   -1   -1 
   0    0    0    0    0    0    0    0    0    0    0    0    0    0    0    0    0    0    0    0    0    0    0    0    0    0    0    0    0    0    0    0    0    0    0    0    0    0    0    0    0    0    0    0    0    0    0   -1   -1   -1 
   0    0    0    0    0    0    0    0    0    0    0    0    0    0    0    0    0    0    0    0    0    0    0    0    0    0    0    0    0    0    0    0    0    0    0    0    0    0    0    0    0    0    0    0    0    0    0    0   23   -1 
   0    0    0    0    0    0    0    0    0    0    0    0    0    0    0    0    0    0    0    0    0    0    0    0    0    0    0    0    0    0    0    0    0    0    0    0    0    0    0    0    0    0    0    0    0    0    0    0    0   22 
   0    0    0    0    0    0    0    0    0    0    0    0    0    0    0    0    0    0    0    0    0    0    0    0    0    0    0    0    0    0    0    0    0    0    0    0    0    0    0    0    0    0    0    0    0    0    0    0    0    0 
